solving instance transportation 15 7 square
Set parameter TokenServer to value "licences.gerad.lan"
Set parameter MIPGap to value 1e-06
Set parameter FuncPieceError to value 1e-06
Set parameter Threads to value 1
Set parameter FuncPieces to value -2
Set parameter TimeLimit to value 3600
Gurobi Optimizer version 12.0.2 build v12.0.2rc0 (linux64 - "AlmaLinux 9.6 (Sage Margay)")

CPU model: Intel(R) Xeon(R) Gold 6258R CPU @ 2.70GHz, instruction set [SSE2|AVX|AVX2|AVX512]
Thread count: 56 physical cores, 56 logical processors, using up to 1 threads

Non-default parameters:
TimeLimit  3600
MIPGap  1e-06
Threads  1
FuncPieces  -2
FuncPieceError  1e-06

Optimize a model with 480 rows, 900 columns and 1350 nonzeros
Model fingerprint: 0x5118a94b
Model has 225 function constraints treated as nonlinear
  225 POW
Variable types: 675 continuous, 225 integer (225 binary)
Coefficient statistics:
  Matrix range     [7e-04, 2e+02]
  Objective range  [1e+00, 1e+00]
  Bounds range     [2e+00, 1e+10]
  RHS range        [2e+00, 3e+02]
Warning: Model contains large bounds
         Consider reformulating model or setting NumericFocus parameter
         to avoid numerical issues.
Presolve removed 450 rows and 675 columns
Presolve time: 0.00s
Presolved: 30 rows, 225 columns, 450 nonzeros
Presolved model has 225 quadratic objective terms
Variable types: 225 continuous, 0 integer (0 binary)
Root relaxation presolve time: 0.00s
Root relaxation presolved: 30 rows, 225 columns, 450 nonzeros
Root relaxation presolved model has 225 quadratic objective terms
Root barrier log...

Ordering time: 0.00s

Barrier statistics:
 AA' NZ     : 2.250e+02
 Factor NZ  : 4.650e+02
 Factor Ops : 9.455e+03 (less than 1 second per iteration)
 Threads    : 1

                  Objective                Residual
Iter       Primal          Dual         Primal    Dual     Compl     Time
   0   6.36993342e+07 -6.52458316e+07  1.13e+04 8.18e+02  7.25e+05     0s
   1   2.43166898e+06 -4.20601930e+06  1.97e+03 1.40e+02  1.32e+05     0s
   2   1.60862030e+04 -1.71430055e+06  1.16e+02 8.21e+00  1.08e+04     0s
   3   2.24589234e+03 -9.95707087e+05  2.19e+01 1.53e+00  3.26e+03     0s
   4   1.08951403e+03 -5.37226368e+05  9.72e+00 6.74e-01  1.62e+03     0s
   5   4.40095684e+02 -2.44005835e+05  3.31e+00 2.32e-01  6.70e+02     0s
   6   1.93172417e+02 -1.07003121e+05  8.25e-01 6.17e-02  2.57e+02     0s
   7   1.50094519e+02 -6.46448464e+04  3.37e-01 2.63e-02  1.49e+02     0s
   8   1.39961679e+02 -2.54532978e+04  1.17e-01 9.69e-03  5.72e+01     0s
   9   1.35694536e+02 -1.15194281e+03  1.70e-03 1.54e-04  2.74e+00     0s
  10   1.21780944e+02 -1.48029305e+02  2.96e-04 2.67e-05  5.74e-01     0s
  11   1.09103484e+02  2.12990699e+01  5.00e-05 4.23e-06  1.86e-01     0s
  12   1.05607115e+02  7.02346145e+01  1.49e-05 1.32e-06  7.51e-02     0s
  13   1.04127287e+02  1.02140730e+02  1.61e-07 1.15e-08  4.15e-03     0s
  14   1.04056879e+02  1.03990858e+02  1.92e-09 1.74e-10  1.38e-04     0s
  15   1.04055011e+02  1.04054044e+02  9.11e-12 2.96e-12  2.02e-06     0s
  16   1.04055008e+02  1.04055006e+02  1.80e-14 2.04e-12  3.76e-09     0s
  17   1.04055008e+02  1.04055008e+02  3.55e-15 3.28e-12  6.13e-12     0s

Barrier solved model in 17 iterations and 0.00 seconds (0.00 work units)
Optimal objective 1.04055008e+02


Root relaxation: objective 1.040550e+02, 0 iterations, 0.00 seconds (0.00 work units)

    Nodes    |    Current Node    |     Objective Bounds      |     Work
 Expl Unexpl |  Obj  Depth IntInf | Incumbent    BestBd   Gap | It/Node Time

*    0     0               0     104.0550078  104.05501  0.00%     -    0s

Explored 1 nodes (0 simplex iterations) in 0.00 seconds (0.00 work units)
Thread count was 1 (of 56 available processors)

Solution count 1: 104.055 

Optimal solution found (tolerance 1.00e-06)
Best objective 1.040550078429e+02, best bound 1.040550078429e+02, gap 0.0000%

User-callback calls 345, time in user-callback 0.00 sec
primal_bound = 104.05500784285641, dual_bound = 104.05500784285638, gap = 2.7314119733022745e-14, time = 0.02
